letting n =  10
letting blocks =  [[1, 5], [1, 7], [1, 8], [1, 10], [2, 5], [2, 7], [2, 8], [2, 9], [2, 10], [3, 2], [3, 5], [4, 1], [4, 3], [4, 6], [4, 7], [4, 8], [5, 4], [5, 5], [5, 6], [5, 7], [5, 9], [6, 1], [6, 7], [6, 10], [7, 3], [7, 4], [7, 7], [8, 2], [8, 6], [8, 8], [8, 10], [9, 6], [9, 8], [9, 9], [9, 10], [10, 3], [10, 5], [10, 6], [10, 8], [10, 9]]
